50
172
142
136
143
180
146
180
184
182
183
160
164
156
162
132
136
171
185
194
143
130
151
130
185
195
128
174
152
133
151
189
164
139
165
137
127
178
152
174
168
194
196
188
134
156
127
157
141
170
129
